c ---- [ banner ] ------------------------------------------------------------
c
c Kissat SAT Solver
c 
c Copyright (c) 2021-2024 Armin Biere University of Freiburg
c Copyright (c) 2019-2021 Armin Biere Johannes Kepler University Linz
c 
c Version 4.0.1 43f02cf3e992cb44653b35e5cb26f93281552ae0
c gcc (Ubuntu 13.2.0-23ubuntu4) 13.2.0 -W -Wall -O3 -DNDEBUG
c Thu Sep 12 12:27:46 CEST 2024 Linux abryzen9 6.8.0-41-generic x86_64
c
c ---- [ parsing ] -----------------------------------------------------------
c
c opened and reading DIMACS file:
c
c   /data/artifact/AMulet2.0_artifact/exp4/cnf_mfs_64/64_64_U_SP_WT_BK_GenMul_mfs.cnf
c
c parsed 'p cnf 36421 141756' header
c closing input after reading 2759890 bytes (3 MB)
c finished parsing after 0.04 seconds
c
c ---- [ options ] -----------------------------------------------------------
c
c --stable=0                       (different from default '1')
c
c ---- [ solving ] -----------------------------------------------------------
c
c  seconds switched rate     size/glue tier1  binary           remaining
c         MB reductions conflicts size  tier2     irredundant
c          level restarts redundant glue  trail           variables
c
c *  0.04 11 0 0 0  0 0   0   0 0.0 0 0 0 0 0% 29230 112524 36418 100%
c (  0.06 13 0 0 0  0 0   0   0 0.0 0 0 0 0 0% 29230 112524 36418 100%
c .  0.07 13 0 0 0  0 0   0   0 0.0 0 0 0 0 0% 29226 112524 36418 100%
c c  0.18 22 0 0 0  0 0   0   0 0.0 0 0 0 0 0% 36450 98292 32804 90%
c d  0.19 22 0 0 0  0 0   0   0 0.0 0 0 0 0 0% 29222 98292 32804 90%
c =  0.25 22 0 0 0  0 0   0   0 0.0 0 0 0 0 0% 29610 98292 32538 89%
c d  0.26 22 0 0 0  0 0   0   0 0.0 0 0 0 0 0% 29078 98292 32538 89%
c f  0.38 20 0 0 0  0 0   0   0 0.0 0 0 0 0 0% 32122 93419 34363 94%
c e  0.54 27 0 0 0  0 0   0   0 0.0 0 0 0 0 0% 10349 107622 23182 64%
c )  0.54 27 0 0 0  0 0   0   0 0.0 0 0 0 0 0% 10349 107622 23182 64%
c {  0.56 30 0 0 0  0 0   0   0 0.0 0 0 2 6 0% 10349 107622 23182 64%
c -  0.83 29 107 0 1 305 32 1000 757 3.0 15 5 2 8 15% 10412 107617 23182 64%
c -  1.29 29 163 0 2 546 39 2000 1452 4.3 30 7 2 10 21% 10453 107616 23182 64%
c c  1.41 24 263 0 2 573 38 2503 1852 4.1 27 7 2 10 20% 10485 107591 23176 64%
c d  1.42 24 263 0 2 573 38 2503 1848 4.1 27 7 2 10 20% 10473 107591 23176 64%
c u  1.44 24 263 0 2 573 38 2503 1505 4.1 27 7 2 10 20% 10482 107591 23176 64%
c v  1.47 24 263 0 2 573 38 2503 1187 4.1 27 7 2 10 20% 10482 107591 23176 64%
c w  1.49 24 263 0 2 573 38 2503 1185 4.1 27 7 2 10 20% 10482 107591 23176 64%
c x  1.52 25 263 0 2 573 38 2503 1185 4.1 27 7 2 10 20% 10587 107385 23176 64%
c =  1.61 25 263 0 2 573 38 2503 1185 4.1 27 7 2 10 20% 10943 107379 22998 63%
c
c  seconds   switched   rate       size/glue tier1     binary           remaining
c         MB  reductions conflicts       size  tier2       irredundant
c           level restarts    redundant    glue    trail           variables
c
c d  1.62 25 263 0 2 573 38 2503 1184 4.1 27 7 2 10 20% 10583 107379 22998 63%
c t  1.63 25 263 0 2 573 38 2503 1184 4.1 27 7 2 10 20% 10581 107379 22998 63%
c f  1.67 25 263 0 2 573 38 2503 1184 4.1 27 7 2 10 20% 11373 105884 23696 65%
c u  1.71 25 263 0 2 573 38 2503 1130 4.1 27 7 2 10 20% 11373 105884 23696 65%
c v  1.73 25 263 0 2 573 38 2503 1084 4.1 27 7 2 10 20% 11373 105884 23696 65%
c w  1.76 27 263 0 2 573 38 2503 1074 4.1 27 7 2 10 20% 11373 105884 23696 65%
c x  1.79 27 263 0 2 573 38 2503 1074 4.1 27 7 2 10 20% 11375 105447 23696 65%
c =  1.88 27 263 0 2 573 38 2503 1074 4.1 27 7 2 10 20% 11781 105447 23493 65%
c d  1.88 27 263 0 2 573 38 2503 1074 4.1 27 7 2 10 20% 11313 105447 23493 65%
c f  1.94 27 263 0 2 573 38 2503 1074 4.1 27 7 2 10 20% 11771 104760 23722 65%
c -  2.13 27 321 0 3 654 37 3416 1569 4.3 27 6 2 9 19% 11858 104738 23722 65%
c -  2.58 27 316 0 4 816 36 5148 2783 4.0 25 6 2 8 21% 11898 104734 23722 65%
c -  2.93 27 401 0 5 916 34 7149 4001 3.8 22 6 2 8 22% 11999 104722 23722 65%
c c  3.19 27 402 0 5 995 35 7708 4485 3.9 23 6 2 8 22% 12021 104660 23698 65%
c d  3.20 27 402 0 5 995 35 7708 4479 3.9 23 6 2 8 22% 11973 104660 23698 65%
c u  3.24 27 402 0 5 995 35 7708 3625 3.9 23 6 2 8 22% 11986 104660 23698 65%
c v  3.28 27 402 0 5 995 35 7708 3125 3.9 23 6 2 8 22% 11988 104660 23698 65%
c w  3.32 27 402 0 5 995 35 7708 3125 3.9 23 6 2 8 22% 11988 104660 23698 65%
c x  3.35 27 402 0 5 995 35 7708 3125 3.9 23 6 2 8 22% 12018 103511 23698 65%
c =  3.47 27 402 0 5 995 35 7708 3125 3.9 23 6 2 8 22% 12856 103511 23279 64%
c
c  seconds   switched   rate       size/glue tier1    binary           remaining
c         MB  reductions conflicts       size  tier2      irredundant
c           level restarts    redundant    glue   trail           variables
c
c d  3.48 27 402 0 5 995 35 7708 3104 3.9 23 6 2 8 22% 11933 103511 23279 64%
c t  3.50 27 402 0 5 995 35 7708 3104 3.9 23 6 2 8 22% 11910 103511 23279 64%
c f  3.54 27 402 0 5 995 35 7708 3104 3.9 23 6 2 8 22% 13734 100761 24195 66%
c u  3.66 27 402 0 5 995 35 7708 2880 3.9 23 6 2 8 22% 13747 100761 24195 66%
c v  3.68 27 402 0 5 995 35 7708 2791 3.9 23 6 2 8 22% 13748 100761 24195 66%
c w  3.74 27 402 0 5 995 35 7708 2779 3.9 23 6 2 8 22% 13748 100761 24195 66%
c x  3.77 27 402 0 5 995 35 7708 2779 3.9 23 6 2 8 22% 13766 97207 24195 66%
c =  3.89 27 402 0 5 995 35 7708 2779 3.9 23 6 2 8 22% 14334 97207 23911 66%
c d  3.90 27 402 0 5 995 35 7708 2776 3.9 23 6 2 8 22% 13686 97207 23911 66%
c t  3.92 27 402 0 5 995 35 7708 2776 3.9 23 6 2 8 22% 13662 97207 23911 66%
c f  3.97 27 402 0 5 995 35 7708 2776 3.9 23 6 2 8 22% 13921 96818 24041 66%
c -  4.35 27 410 0 6 1131 35 9389 3599 4.1 24 6 2 8 23% 14009 96813 24041 66%
c o  4.53 27 420 0 6 1184 35 10223 4307 4.1 24 6 2 8 23% 14042 96813 24041 66%
c -  5.15 27 423 0 7 1385 37 11838 5130 4.4 27 6 2 7 24% 14082 96812 24041 66%
c s  5.54 27 409 0 7 1480 37 12511 5718 4.6 28 6 2 7 25% 14100 95382 24041 66%
c e  5.67 27 409 0 7 1480 37 12511 5718 4.6 28 6 2 7 25% 11784 96928 22349 61%
c s  5.68 27 409 0 7 1480 37 12511 5718 4.6 28 6 2 7 25% 11800 95670 22349 61%
c e  5.70 27 409 0 7 1480 37 12511 5718 4.6 28 6 2 7 25% 11798 95672 22346 61%
c ^  5.70 27 409 0 7 1480 37 12511 5718 4.6 28 6 2 7 25% 11798 95672 22346 61%
c -  6.29 27 389 0 8 1674 36 14483 6069 4.6 29 6 2 7 25% 11830 95669 22346 61%
c
c  seconds   switched    rate        size/glue tier1    binary          remaining
c         MB  reductions   conflicts       size  tier2      irredundant
c           level  restarts     redundant    glue   trail          variables
c
c d  6.68 27 377 0 8 1799 35 15786 7265 4.5 29 6 2 7 25% 11631 95668 22204 61%
c u  6.73 27 377 0 8 1799 35 15786 5857 4.5 29 6 2 7 25% 11651 95668 22204 61%
c v  6.78 27 377 0 8 1799 35 15786 5115 4.5 29 6 2 7 25% 11652 95668 22204 61%
c w  6.88 27 377 0 8 1799 35 15786 5107 4.5 29 6 2 7 25% 11652 95668 22204 61%
c x  6.93 27 377 0 8 1799 35 15786 5107 4.5 29 6 2 7 25% 11720 93718 22204 61%
c =  7.18 27 377 0 8 1799 35 15786 5107 4.5 29 6 2 7 25% 13900 93718 21114 58%
c d  7.19 27 377 0 8 1799 35 15786 4998 4.5 29 6 2 7 25% 11243 93718 21114 58%
c t  7.22 27 377 0 8 1799 35 15786 4998 4.5 29 6 2 7 25% 11219 93718 21114 58%
c f  7.30 27 377 0 8 1799 35 15786 4998 4.5 29 6 2 7 25% 11223 93706 21118 58%
c u  7.42 27 377 0 8 1799 35 15786 4562 4.5 29 6 2 7 25% 11230 93706 21118 58%
c v  7.45 27 377 0 8 1799 35 15786 4450 4.5 29 6 2 7 25% 11230 93706 21118 58%
c w  7.56 27 377 0 8 1799 35 15786 4412 4.5 29 6 2 7 25% 11230 93706 21118 58%
c x  7.61 27 377 0 8 1799 35 15786 4412 4.5 29 6 2 7 25% 11246 92536 21118 58%
c =  7.86 27 377 0 8 1799 35 15786 4412 4.5 29 6 2 7 25% 12810 92536 20336 56%
c d  7.87 27 377 0 8 1799 35 15786 4395 4.5 29 6 2 7 25% 10907 92536 20336 56%
c t  7.89 27 377 0 8 1799 35 15786 4395 4.5 29 6 2 7 25% 10895 92536 20336 56%
c f  7.92 27 377 0 8 1799 35 15786 4395 4.5 29 6 2 7 25% 10898 92516 20343 56%
c -  8.22 27 371 0 9 1869 35 17311 5057 4.4 28 6 2 7 25% 10940 92516 20343 56%
c o  8.91 27 353 0 9 2080 33 20225 7625 4.2 27 6 2 7 25% 10992 92516 20343 56%
c -  9.00 27 352 0 10 2104 33 20311 6863 4.2 28 7 2 7 25% 10992 92516 20343 56%
c
c  seconds   switched     rate        size/glue tier1    binary          remaining
c         MB   reductions   conflicts       size  tier2      irredundant
c           level   restarts     redundant    glue   trail          variables
c
c -  9.57 27 352 0 11 2303 33 23474 8662 4.1 26 6 2 7 25% 11066 92510 20343 56%
c s 10.00 27 347 0 11 2440 32 25013 10025 4.1 26 6 2 7 25% 11105 91238 20343 56%
c e 10.14 27 347 0 11 2440 32 25013 10025 4.1 26 6 2 7 25% 9787 94573 17643 48%
c s 10.17 27 347 0 11 2440 32 25013 10025 4.1 26 6 2 7 25% 9840 90811 17643 48%
c e 10.22 27 347 0 11 2440 32 25013 10025 4.1 26 6 2 7 25% 9818 90845 17626 48%
c ^ 10.22 27 347 0 11 2440 32 25013 10025 4.1 26 6 2 7 25% 9818 90845 17626 48%
c - 10.72 27 331 0 12 2566 31 26790 8590 3.9 25 6 2 7 25% 9836 90843 17626 48%
c d 10.76 27 330 0 12 2573 31 26913 8692 3.9 25 6 2 7 25% 9772 90843 17584 48%
c u 10.82 27 330 0 12 2573 31 26913 7093 3.9 25 6 2 7 25% 9784 90843 17584 48%
c v 10.87 27 330 0 12 2573 31 26913 6138 3.9 25 6 2 7 25% 9786 90843 17584 48%
c w 10.89 27 330 0 12 2573 31 26913 6137 3.9 25 6 2 7 25% 9786 90843 17584 48%
c x 10.99 27 330 0 12 2573 31 26913 6135 3.9 25 6 2 7 25% 9819 87670 17584 48%
c = 11.24 27 330 0 12 2573 31 26913 6135 3.9 25 6 2 7 25% 12357 87670 16315 45%
c d 11.25 27 330 0 12 2573 31 26913 5879 3.9 25 6 2 7 25% 9755 87670 16315 45%
c t 11.27 27 330 0 12 2573 31 26913 5879 3.9 25 6 2 7 25% 9726 87670 16315 45%
c f 11.36 27 330 0 12 2573 31 26913 5879 3.9 25 6 2 7 25% 9746 87511 16346 45%
c u 11.42 27 330 0 12 2573 31 26913 5366 3.9 25 6 2 7 25% 9749 87511 16346 45%
c v 11.45 27 330 0 12 2573 31 26913 5214 3.9 25 6 2 7 25% 9749 87511 16346 45%
c w 11.46 27 330 0 12 2573 31 26913 5209 3.9 25 6 2 7 25% 9749 87511 16346 45%
c x 11.57 27 330 0 12 2573 31 26913 5209 3.9 25 6 2 7 25% 9752 77029 16346 45%
c
c  seconds   switched     rate        size/glue tier1    binary          remaining
c         MB   reductions   conflicts       size  tier2      irredundant
c           level   restarts     redundant    glue   trail          variables
c
c = 11.81 27 330 0 12 2573 31 26913 5209 3.9 25 6 2 7 25% 10868 77029 15788 43%
c d 11.82 27 330 0 12 2573 31 26913 5158 3.9 25 6 2 7 25% 9738 77029 15788 43%
c t 11.84 27 330 0 12 2573 31 26913 5158 3.9 25 6 2 7 25% 9726 77029 15788 43%
c f 11.87 27 330 0 12 2573 31 26913 5158 3.9 25 6 2 7 25% 9730 77003 15795 43%
c - 12.56 27 303 0 13 2795 29 30256 7305 3.7 24 6 2 7 26% 9758 77001 15795 43%
c - 13.25 27 282 0 14 3047 28 33861 9370 3.5 23 7 2 7 26% 9782 77001 15795 43%
c - 13.99 27 278 0 15 3364 27 37602 11023 3.5 23 7 2 7 26% 9820 77001 15795 43%
c o 14.59 27 276 0 15 3607 27 40816 13898 3.5 23 7 2 7 26% 9847 77000 15795 43%
c c 14.81 27 275 0 15 3674 27 41248 14305 3.5 23 7 2 7 26% 9865 76911 15765 43%
c d 14.82 27 275 0 15 3674 27 41248 14272 3.5 23 7 2 7 26% 9802 76911 15763 43%
c u 14.89 27 275 0 15 3674 27 41248 12102 3.5 23 7 2 7 26% 9813 76911 15763 43%
c v 14.97 27 275 0 15 3674 27 41248 10639 3.5 23 7 2 7 26% 9814 76911 15763 43%
c w 15.02 27 275 0 15 3674 27 41248 10639 3.5 23 7 2 7 26% 9814 76911 15763 43%
c x 15.10 27 275 0 15 3674 27 41248 10639 3.5 23 7 2 7 26% 9814 73834 15763 43%
c = 15.38 27 275 0 15 3674 27 41248 10639 3.5 23 7 2 7 26% 10600 73834 15370 42%
c d 15.39 27 275 0 15 3674 27 41248 10261 3.5 23 7 2 7 26% 9762 73834 15370 42%
c t 15.41 27 275 0 15 3674 27 41248 10261 3.5 23 7 2 7 26% 9743 73834 15370 42%
c u 15.49 27 275 0 15 3674 27 41248 9576 3.5 23 7 2 7 26% 9747 73834 15370 42%
c v 15.54 27 275 0 15 3674 27 41248 9226 3.5 23 7 2 7 26% 9748 73834 15370 42%
c w 15.66 27 275 0 15 3674 27 41248 9224 3.5 23 7 2 7 26% 9748 73834 15370 42%
c
c  seconds   switched     rate        size/glue tier1    binary         remaining
c         MB   reductions   conflicts       size  tier2     irredundant
c           level   restarts     redundant    glue   trail         variables
c
c x 15.75 27 275 0 15 3674 27 41248 9223 3.5 23 7 2 7 26% 9749 71937 15370 42%
c = 16.00 27 275 0 15 3674 27 41248 9223 3.5 23 7 2 7 26% 9791 71937 15349 42%
c d 16.01 27 275 0 15 3674 27 41248 9223 3.5 23 7 2 7 26% 9748 71937 15349 42%
c - 16.11 27 274 0 16 3729 27 41476 8249 3.5 23 7 2 6 26% 9749 71937 15349 42%
c - 16.85 27 267 0 17 4005 27 45476 10452 3.4 23 7 2 6 26% 9787 71937 15349 42%
c - 17.54 27 258 0 18 4301 26 49599 12538 3.4 22 7 2 6 26% 9844 71936 15349 42%
c s 18.12 27 254 0 18 4556 26 52114 14731 3.4 23 7 2 6 26% 9877 70785 15349 42%
c e 18.24 27 254 0 18 4556 26 52114 14731 3.4 23 7 2 6 26% 7851 74423 13855 38%
c s 18.25 27 254 0 18 4556 26 52114 14731 3.4 23 7 2 6 26% 7871 73802 13855 38%
c e 18.27 27 254 0 18 4556 26 52114 14731 3.4 23 7 2 6 26% 7843 73848 13841 38%
c ^ 18.27 27 254 0 18 4556 26 52114 14731 3.4 23 7 2 6 26% 7843 73848 13841 38%
c - 18.62 27 250 0 19 4673 26 53841 12177 3.4 22 7 2 6 26% 7855 73846 13841 38%
c - 19.48 27 238 0 20 5052 25 58208 14279 3.3 22 7 2 6 26% 7884 73843 13841 38%
c c 19.59 27 236 0 20 5082 25 58900 14836 3.2 22 7 2 6 26% 7955 73556 13793 38%
c d 19.59 27 236 0 20 5082 25 58900 14659 3.2 22 7 2 6 26% 7859 73556 13793 38%
c u 19.68 27 236 0 20 5082 25 58900 12198 3.2 22 7 2 6 26% 7881 73556 13793 38%
c v 19.75 27 236 0 20 5082 25 58900 10723 3.2 22 7 2 6 26% 7884 73556 13793 38%
c w 19.77 27 236 0 20 5082 25 58900 10698 3.2 22 7 2 6 26% 7885 73556 13793 38%
c x 19.87 27 236 0 20 5082 25 58900 10697 3.2 22 7 2 6 26% 7891 73298 13793 38%
c d 20.20 27 236 0 20 5082 25 58900 10689 3.2 22 7 2 6 26% 7879 73298 13787 38%
c
c  seconds   switched     rate         size/glue tier1    binary         remaining
c         MB   reductions   conflicts        size  tier2     irredundant
c           level   restarts      redundant    glue   trail         variables
c
c t 20.22 27 236 0 20 5082 25 58900 10689 3.2 22 7 2 6 26% 7871 73298 13787 38%
c f 20.28 27 236 0 20 5082 25 58900 10689 3.2 22 7 2 6 26% 7878 73260 13793 38%
c c 20.34 27 236 0 20 5082 25 58900 10683 3.2 22 7 2 6 26% 7886 73224 13788 38%
c d 20.35 27 236 0 20 5082 25 58900 10683 3.2 22 7 2 6 26% 7876 73224 13788 38%
c u 20.41 27 236 0 20 5082 25 58900 10290 3.2 22 7 2 6 26% 7884 73224 13788 38%
c v 20.45 27 236 0 20 5082 25 58900 10024 3.2 22 7 2 6 26% 7885 73224 13788 38%
c w 20.47 27 236 0 20 5082 25 58900 10012 3.2 22 7 2 6 26% 7885 73224 13788 38%
c x 20.62 27 236 0 20 5082 25 58900 10007 3.2 22 7 2 6 26% 7901 72334 13788 38%
c d 20.63 27 236 0 20 5082 25 58900 10005 3.2 22 7 2 6 26% 7899 72334 13787 38%
c t 20.64 27 236 0 20 5082 25 58900 10005 3.2 22 7 2 6 26% 7892 72334 13787 38%
c - 21.30 27 226 0 21 5347 24 62680 12005 3.1 21 7 2 6 26% 7909 72334 13787 38%
c - 22.21 27 216 0 22 5750 24 67262 14452 3.1 21 7 2 6 26% 7952 72331 13787 38%
c o 22.90 27 213 0 22 6058 23 70835 17610 3.0 20 7 2 6 26% 7995 72329 13787 38%
c - 23.10 27 211 0 23 6153 23 71952 16391 3.0 20 7 2 6 26% 8003 72329 13787 38%
c - 23.87 27 204 0 24 6588 23 76747 18133 3.0 20 7 2 6 25% 8068 72321 13787 38%
c d 24.66 27 202 0 24 7028 23 79985 20755 3.0 20 7 2 6 26% 8002 72316 13729 38%
c u 24.77 27 202 0 24 7028 23 79985 17568 3.0 20 7 2 6 26% 8059 72316 13729 38%
c v 24.86 27 202 0 24 7028 23 79985 15964 3.0 20 7 2 6 26% 8061 72316 13729 38%
c w 24.93 27 202 0 24 7028 23 79985 15961 3.0 20 7 2 6 26% 8061 72316 13729 38%
c x 25.03 27 202 0 24 7028 23 79985 15956 3.0 20 7 2 6 26% 8078 71954 13729 38%
c
c  seconds   switched     rate         size/glue tier1    binary         remaining
c         MB   reductions   conflicts        size  tier2     irredundant
c           level   restarts      redundant    glue   trail         variables
c
c = 25.20 27 202 0 24 7028 23 79985 15956 3.0 20 7 2 6 26% 8140 71954 13698 38%
c d 25.21 27 202 0 24 7028 23 79985 15902 3.0 20 7 2 6 26% 8035 71952 13688 38%
c t 25.23 27 202 0 24 7028 23 79985 15902 3.0 20 7 2 6 26% 8006 71952 13688 38%
c c 25.30 27 202 0 24 7028 23 79985 15859 3.0 20 7 2 6 26% 8042 71804 13670 38%
c d 25.31 27 202 0 24 7028 23 79985 15857 3.0 20 7 2 6 26% 8006 71804 13670 38%
c u 25.40 27 202 0 24 7028 23 79985 15204 3.0 20 7 2 6 26% 8014 71804 13670 38%
c v 25.47 27 202 0 24 7028 23 79985 14533 3.0 20 7 2 6 26% 8015 71804 13670 38%
c w 25.59 27 202 0 24 7028 23 79985 14522 3.0 20 7 2 6 26% 8015 71804 13670 38%
c x 25.66 27 202 0 24 7028 23 79985 14522 3.0 20 7 2 6 26% 8017 71779 13670 38%
c = 26.08 27 202 0 24 7028 23 79985 14522 3.0 20 7 2 6 26% 8549 71765 13403 37%
c d 26.09 27 202 0 24 7028 23 79985 14309 3.0 20 7 2 6 26% 7946 71765 13403 37%
c t 26.11 27 202 0 24 7028 23 79985 14309 3.0 20 7 2 6 26% 7915 71765 13403 37%
c f 26.13 27 202 0 24 7028 23 79985 14309 3.0 20 7 2 6 26% 7921 71733 13408 37%
c - 26.44 27 199 0 25 7166 23 81646 14068 2.9 20 7 2 6 26% 7934 71732 13408 37%
c - 27.26 27 192 0 26 7496 22 86646 16555 2.9 20 7 2 6 25% 7999 71729 13408 37%
c - 28.35 27 192 0 27 8052 23 91745 17081 2.9 20 7 1 6 25% 8043 71727 13408 37%
c s 29.40 27 189 0 27 8573 23 95826 20847 2.9 20 7 1 6 25% 8063 70642 13408 37%
c e 29.53 27 189 0 27 8573 23 95826 20847 2.9 20 7 1 6 25% 5429 77601 11962 33%
c 2 29.53 27 189 0 27 8573 23 95826 20847 2.9 20 7 1 6 25% 5427 77601 11962 33%
c s 29.55 27 189 0 27 8573 23 95826 20847 2.9 20 7 1 6 25% 5457 77012 11962 33%
c
c  seconds   switched     rate         size/glue tier1    binary         remaining
c         MB   reductions   conflicts        size  tier2     irredundant
c           level   restarts      redundant    glue   trail         variables
c
c e 29.57 27 189 0 27 8573 23 95826 20847 2.9 20 7 1 6 25% 5415 77139 11923 33%
c ^ 29.57 27 189 0 27 8573 23 95826 20847 2.9 20 7 1 6 25% 5415 77139 11923 33%
c - 29.83 27 188 0 28 8688 23 96941 14169 2.9 20 7 1 5 25% 5419 77139 11923 33%
c - 30.65 27 182 0 29 9193 23 102233 16213 2.9 20 7 1 5 25% 5446 77139 11923 33%
c c 30.84 27 183 0 29 9331 22 104630 18247 2.8 20 7 1 5 25% 5521 76858 11878 33%
c d 30.84 27 183 0 29 9331 22 104630 18116 2.8 20 7 1 5 25% 5431 76858 11878 33%
c u 30.88 27 183 0 29 9331 22 104630 16326 2.8 20 7 1 5 25% 5455 76858 11878 33%
c v 30.93 27 183 0 29 9331 22 104630 13747 2.8 20 7 1 5 25% 5461 76858 11878 33%
c w 30.98 27 183 0 29 9331 22 104630 13397 2.8 20 7 1 5 25% 5461 76858 11878 33%
c = 31.32 27 183 0 29 9331 22 104630 13397 2.8 20 7 1 5 25% 5901 76830 11655 32%
c d 31.33 27 183 0 29 9331 22 104630 12954 2.8 20 7 1 5 25% 5418 76830 11655 32%
c t 31.33 27 183 0 29 9331 22 104630 12954 2.8 20 7 1 5 25% 5379 76830 11655 32%
c f 31.39 27 183 0 29 9331 22 104630 12954 2.8 20 7 1 5 25% 5414 76639 11672 32%
c u 31.45 27 183 0 29 9331 22 104630 12569 2.8 20 7 1 5 25% 5426 76639 11672 32%
c v 31.48 27 183 0 29 9331 22 104630 12043 2.8 20 7 1 5 25% 5426 76639 11672 32%
c w 31.53 27 183 0 29 9331 22 104630 11934 2.8 20 7 1 5 25% 5426 76639 11672 32%
c x 31.62 27 183 0 29 9331 22 104630 11907 2.8 20 7 1 5 25% 5442 75646 11672 32%
c = 31.96 27 183 0 29 9331 22 104630 11907 2.8 20 7 1 5 25% 5587 75630 11597 32%
c d 31.96 27 183 0 29 9331 22 104630 11795 2.8 20 7 1 5 25% 5430 75630 11597 32%
c t 31.97 27 183 0 29 9331 22 104630 11795 2.8 20 7 1 5 25% 5395 75630 11597 32%
c
c  seconds   switched     rate          size/glue tier1    binary         remaining
c         MB   reductions   conflicts         size  tier2     irredundant
c           level   restarts       redundant    glue   trail         variables
c
c f 31.98 27 183 0 29 9331 22 104630 11795 2.8 20 7 1 5 25% 5398 75618 11598 32%
c - 32.36 27 180 0 30 9604 22 107618 12411 2.8 19 7 1 5 25% 5399 75618 11598 32%
c o 32.88 27 177 0 30 10036 22 110970 15580 2.8 19 7 1 5 26% 5408 75617 11598 32%
c - 33.18 27 176 0 31 10262 22 113095 14959 2.8 19 7 1 5 26% 5410 75615 11598 32%
c - 33.77 27 174 0 32 10711 22 118664 17083 2.7 19 7 1 5 26% 5446 75615 11598 32%
c - 34.46 27 172 0 33 11222 22 124320 18641 2.8 20 7 1 5 26% 5483 75614 11598 32%
c - 35.43 27 170 0 34 11956 22 130064 20086 2.8 20 7 1 5 26% 5503 75614 11598 32%
c d 35.90 27 168 0 34 12294 22 132900 22610 2.8 20 7 1 5 26% 5464 75614 11572 32%
c u 35.95 27 168 0 34 12294 22 132900 20298 2.8 20 7 1 5 26% 5486 75614 11572 32%
c v 36.02 27 168 0 34 12294 22 132900 16756 2.8 20 7 1 5 26% 5492 75614 11572 32%
c w 36.16 27 168 0 34 12294 22 132900 16708 2.8 20 7 1 5 26% 5492 75614 11572 32%
c x 36.26 27 168 0 34 12294 22 132900 16683 2.8 20 7 1 5 26% 5519 73309 11572 32%
c d 36.73 27 168 0 34 12294 22 132900 16681 2.8 20 7 1 5 26% 5515 73309 11570 32%
c t 36.73 27 168 0 34 12294 22 132900 16681 2.8 20 7 1 5 26% 5490 73309 11570 32%
c f 36.74 27 168 0 34 12294 22 132900 16681 2.8 20 7 1 5 26% 5492 73298 11571 32%
c c 36.78 27 168 0 34 12294 22 132900 16668 2.8 20 7 1 5 26% 5508 73253 11565 32%
c d 36.78 27 168 0 34 12294 22 132900 16668 2.8 20 7 1 5 26% 5496 73253 11565 32%
c u 36.82 27 168 0 34 12294 22 132900 16051 2.8 20 7 1 5 26% 5501 73253 11565 32%
c v 36.86 27 168 0 34 12294 22 132900 15428 2.8 20 7 1 5 26% 5504 73253 11565 32%
c w 37.02 27 168 0 34 12294 22 132900 14993 2.8 20 7 1 5 26% 5504 73253 11565 32%
c
c  seconds   switched      rate          size/glue tier1    binary         remaining
c         MB   reductions    conflicts         size  tier2     irredundant
c           level   restarts        redundant    glue   trail         variables
c
c x 37.09 27 168 0 34 12294 22 132900 14993 2.8 20 7 1 5 26% 5504 73251 11565 32%
c t 37.10 27 168 0 34 12294 22 132900 14993 2.8 20 7 1 5 26% 5503 73251 11565 32%
c - 37.47 27 167 0 35 12516 22 135894 15115 2.7 20 7 1 5 26% 5531 73249 11565 32%
c - 38.29 27 164 0 36 13062 22 141810 17918 2.7 20 7 1 5 27% 5549 73248 11565 32%
c - 39.47 27 162 0 37 13845 22 147810 20303 2.8 21 8 1 5 27% 5565 73248 11565 32%
c - 40.40 27 161 0 38 14466 22 153893 22139 2.8 22 8 1 5 27% 5590 73246 11565 32%
c s 40.99 27 160 0 38 14888 22 157929 25752 2.8 22 8 1 5 27% 5624 73152 11565 32%
c e 41.11 27 160 0 38 14888 22 157929 25752 2.8 22 8 1 5 27% 3090 85884 9837 27%
c s 41.13 27 160 0 38 14888 22 157929 25752 2.8 22 8 1 5 27% 3111 84526 9837 27%
c e 41.16 27 160 0 38 14888 22 157929 25752 2.8 22 8 1 5 27% 3030 84850 9777 27%
c ^ 41.16 27 160 0 38 14888 22 157929 25752 2.8 22 8 1 5 27% 3030 84850 9777 27%
c - 41.50 27 159 0 39 15102 22 160060 16247 2.8 22 8 1 5 27% 3034 84848 9777 27%
c o 41.69 27 159 0 39 15244 22 160978 17124 2.8 22 8 1 5 27% 3039 84847 9777 27%
c d 42.12 27 156 0 39 15543 22 164914 20528 2.8 22 8 1 5 27% 3038 84847 9768 27%
c u 42.17 27 156 0 39 15543 22 164914 18239 2.8 22 8 1 5 27% 3067 84847 9768 27%
c v 42.24 27 156 0 39 15543 22 164914 15115 2.8 22 8 1 5 27% 3074 84847 9768 27%
c w 42.54 27 156 0 39 15543 22 164914 14850 2.8 22 8 1 5 27% 3074 84847 9768 27%
c = 43.08 27 156 0 39 15543 22 164914 14850 2.8 22 8 1 5 27% 3244 84514 9649 26%
c d 43.08 27 156 0 39 15543 22 164914 14354 2.8 22 8 1 5 27% 3047 84494 9648 26%
c t 43.09 27 156 0 39 15543 22 164914 14354 2.8 22 8 1 5 27% 3019 84494 9648 26%
c
c  seconds   switched      rate          size/glue tier1    binary        remaining
c         MB   reductions    conflicts         size  tier2     irredundant
c           level   restarts        redundant    glue   trail        variables
c
c f 43.19 27 156 0 39 15543 22 164914 14354 2.8 22 8 1 5 27% 3039 84257 9659 27%
c u 43.24 27 156 0 39 15543 22 164914 13861 2.8 22 8 1 5 27% 3044 84257 9659 27%
c v 43.28 27 156 0 39 15543 22 164914 13362 2.8 22 8 1 5 27% 3044 84257 9659 27%
c w 43.49 27 156 0 39 15543 22 164914 13050 2.8 22 8 1 5 27% 3044 84257 9659 27%
c x 43.59 27 156 0 39 15543 22 164914 13043 2.8 22 8 1 5 27% 3048 83449 9659 27%
c = 44.13 27 156 0 39 15543 22 164914 13043 2.8 22 8 1 5 27% 3082 83378 9635 26%
c d 44.14 27 156 0 39 15543 22 164914 12999 2.8 22 8 1 5 27% 3049 83369 9635 26%
c t 44.14 27 156 0 39 15543 22 164914 12999 2.8 22 8 1 5 27% 3044 83369 9635 26%
c i 44.20 27 155 0 39 15565 21 165875 13825 2.8 22 8 1 5 27% 3054 83368 9634 26%
c - 44.22 27 155 0 40 15592 21 166304 12042 2.8 22 8 1 5 27% 2998 83367 9634 26%
c i 44.25 27 154 0 40 15662 21 167092 12727 2.8 22 8 1 5 27% 3001 83367 9633 26%
c i 44.36 27 147 0 40 15809 20 172546 17325 2.8 22 8 1 5 26% 3055 83365 9632 26%
c - 44.37 27 147 0 41 15809 20 172628 14539 2.8 22 8 1 5 26% 3046 83365 9632 26%
c i 44.41 27 145 0 41 15866 20 174465 16145 2.8 22 8 1 5 25% 3060 83361 9631 26%
c i 44.42 27 144 0 41 15879 20 174701 16336 2.8 22 8 1 5 25% 3065 83361 9630 26%
c i 44.43 27 144 0 41 15881 20 174958 16526 2.8 22 8 1 5 25% 3070 83361 9629 26%
c i 44.43 27 143 0 41 15885 20 175531 17033 2.8 22 8 1 5 25% 3074 83361 9628 26%
c i 44.44 27 142 0 41 15885 19 176267 17595 2.8 21 8 1 5 25% 3087 83360 9622 26%
c i 44.44 27 142 0 41 15886 19 176289 17614 2.8 21 8 1 5 25% 3088 83359 9615 26%
c i 44.44 27 142 0 41 15887 19 176291 17615 2.8 21 8 1 5 25% 3088 83359 9614 26%
c
c  seconds   switched      rate          size/glue tier1    binary        remaining
c         MB   reductions    conflicts         size  tier2     irredundant
c           level   restarts        redundant    glue   trail        variables
c
c i 44.44 27 142 0 41 15887 19 176292 17615 2.8 21 8 1 5 25% 3088 83359 9613 26%
c i 44.44 27 142 0 41 15887 19 176323 17624 2.8 21 8 1 5 25% 3094 83358 9612 26%
c i 44.44 27 142 0 41 15887 19 176324 17624 2.8 21 8 1 5 25% 3094 83358 9610 26%
c i 44.44 27 142 0 41 15887 19 176325 17624 2.8 21 8 1 5 25% 3094 83358 9609 26%
c } 44.44 27 142 0 41 15887 19 176330 17624 2.8 21 8 1 5 25% 3095 83358 9591 26%
c 0 44.44 27 142 0 41 15887 19 176330 17624 2.8 21 8 1 5 25% 3095 83358 9591 26%
c
c ---- [ result ] ------------------------------------------------------------
c
s UNSATISFIABLE
c
c ---- [ profiling ] ---------------------------------------------------------
c
c          30.69   69.05 %  search
c          30.69   69.05 %  focused
c          13.19   29.68 %  simplify
c          12.49   28.11 %  probe
c           5.13   11.53 %  sweep
c           4.88   10.97 %  vivify
c           1.00    2.26 %  eliminate
c           0.92    2.06 %  factor
c           0.72    1.63 %  congruence
c           0.62    1.39 %  substitute
c           0.48    1.07 %  preprocess
c           0.25    0.57 %  reduce
c           0.18    0.42 %  subsume
c           0.16    0.36 %  fastel
c           0.15    0.34 %  transitive
c           0.08    0.19 %  backbone
c           0.05    0.12 %  lucky
c           0.04    0.08 %  parse
c =============================================
c          44.44  100.00 %  total
c
c ---- [ statistics ] --------------------------------------------------------
c
c chronological:                         5454                3 %  conflicts
c conflicts:                           176330             3967.63 per second
c congruent:                             3796               10 %  variables
c decisions:                          3580158               20.30 per conflict
c eliminated:                           20374               56 %  variables
c factored:                              3888               11 %  variables
c fast_eliminated:                      11181               55 %  eliminated
c fast_strengthened:                       21                0 %  per strengthened
c fast_subsumed:                           57                0 %  per subsumed
c iterations:                              15                0 %  variables
c propagations:                     154050123          3466310    per second
c reductions:                              41             4301    interval
c reordered:                                6            29388    interval
c restarts:                             15887               11    interval
c strengthened:                          6185                0 %  checks
c substituted:                          10250               28 %  variables
c subsumed:                             12527                0 %  checks
c switched:                                 0                0    interval
c vivified:                             89994               13 %  checks
c
c ---- [ glue usage ] --------------------------------------------------------
c
c focused glue 1 used 291223 clauses 59.43% accumulated 59.43% tier1
c focused glue 2 used 100021 clauses 20.41% accumulated 79.84%
c focused glue 3 used  30603 clauses  6.24% accumulated 86.08%
c focused glue 4 used  17151 clauses  3.50% accumulated 89.58%
c focused glue 5 used  11205 clauses  2.29% accumulated 91.87% tier2
c
c ---- [ resources ] ---------------------------------------------------------
c
c maximum-resident-set-size:         30941184 bytes         30 MB
c process-time:                            44s              44.44 seconds
c
c ---- [ shutting down ] -----------------------------------------------------
c
c exit 20
